c instance by G2
c solution = 0000010
c Known solution cost is 299 
p cnf 7 30
w 5 66 28 38 70 25 67
7 -6 -5 0
3 -2 7 0
1 3 6 0
5 -1 3 0
4 3 -1 0
-6 4 -3 0
2 3 -7 0
7 -3 -5 0
-6 -3 2 0
-3 -5 4 0
3 2 -4 0
-4 3 2 0
3 -5 6 0
7 6 -5 0
5 1 -7 0
-7 -4 -6 0
-3 7 4 0
5 -1 -2 0
-2 -6 3 0
-5 3 -7 0
1 -7 2 0
-3 -2 1 0
4 -1 -7 0
-2 1 6 0
7 -3 4 0
5 6 -3 0
-4 2 -3 0
-3 -1 5 0
-6 -4 -2 0
-5 3 4 0
